c SAT problem
p wcnf 214 761
1 -60 3150 0
1 60 -3135 0
1 75 -76 0
1 -75 3165 0
1 75 -3135 0
1 90 -3075 0
1 90 -105 0
1 90 -3135 0
1 -105 -3075 0
1 105 -3120 0
1 105 3165 0
1 3120 -196 0
1 3120 90 0
1 3135 105 0
1 -3135 75 0
1 3135 -90 0
1 -3150 166 0
1 3150 -121 0
1 3150 -90 0
1 -3165 -136 0
1 3165 3150 0
1 -3165 -121 0
1 3165 -60 0
1 -3165 3166 0
1 120 -3075 0
1 -120 135 0
1 -120 -3135 0
1 -135 3075 0
1 135 136 0
1 135 3120 0
1 135 -3060 0
1 135 120 0
1 -150 -3015 0
1 150 3120 0
1 -150 3090 0
1 150 -3000 0
1 165 -166 0
1 165 -3090 0
1 -165 150 0
1 165 3030 0
1 -3060 3075 0
1 3060 -3061 0
1 -3075 -135 0
1 -3075 105 0
1 3075 240 0
1 -3075 -180 0
1 -3075 -255 0
1 3090 135 0
1 -3090 105 0
1 -3090 211 0
1 -3090 150 0
1 3090 -90 0
1 -3105 135 0
1 -3105 105 0
1 3105 -211 0
1 3105 120 0
1 -3105 255 0
1 195 -3015 0
1 -195 -180 0
1 -195 3060 0
1 -225 3015 0
1 225 3030 0
1 -3000 180 0
1 -3015 165 0
1 3015 150 0
1 3015 3000 0
1 3015 -315 0
1 -3030 225 0
1 -3030 150 0
1 -3045 3030 0
1 61 3330 0
1 61 -3300 0
1 -61 -76 0
1 -61 3345 0
1 -61 -3315 0
1 -61 -60 0
1 -61 62 0
1 -76 3330 0
1 -76 3300 0
1 76 75 0
1 76 77 0
1 76 3315 0
1 -91 106 0
1 -106 -3300 0
1 -106 91 0
1 3300 -3301 0
1 3300 -136 0
1 3300 -76 0
1 -3300 -151 0
1 -3315 197 0
1 3315 106 0
1 3315 -3316 0
1 3315 -151 0
1 -3330 3331 0
1 -3330 -76 0
1 3345 -197 0
1 -3345 -167 0
1 -3345 -122 0
1 121 -136 0
1 -121 3240 0
1 -121 -3150 0
1 -121 -3315 0
1 121 3165 0
1 -136 3240 0
1 136 -3315 0
1 -136 -121 0
1 -136 3165 0
1 151 3240 0
1 -151 -3315 0
1 -151 3255 0
1 -151 3225 0
1 151 3165 0
1 166 -3180 0
1 -166 3150 0
1 166 3195 0
1 3240 -241 0
1 3240 -151 0
1 -3255 196 0
1 3255 -166 0
1 -3255 -3240 0
1 -3270 256 0
1 -3270 -227 0
1 3270 -197 0
1 3270 -166 0
1 -3270 -182 0
1 -3285 256 0
1 3285 -3270 0
1 3285 -106 0
1 -3285 -241 0
1 3285 -182 0
1 -3285 121 0
1 -181 -3105 0
1 -181 -3240 0
1 -181 -3210 0
1 181 -3090 0
1 -181 -3255 0
1 -181 -3165 0
1 196 -3105 0
1 196 -195 0
1 196 -3210 0
1 -196 -3120 0
1 -196 -181 0
1 -196 3165 0
1 211 226 0
1 211 3240 0
1 -211 3180 0
1 -211 -3225 0
1 211 3166 0
1 226 3136 0
1 226 -225 0
1 -226 3240 0
1 226 -3210 0
1 -226 -3151 0
1 226 211 0
1 226 3225 0
1 226 -3195 0
1 3180 -166 0
1 3180 -301 0
1 -3180 -270 0
1 -3180 211 0
1 3180 -285 0
1 3195 -196 0
1 3195 166 0
1 3195 3180 0
1 -3195 301 0
1 -3195 255 0
1 3210 -166 0
1 -3210 -271 0
1 -3210 241 0
1 -3210 -211 0
1 3210 151 0
1 -3210 -316 0
1 -3225 256 0
1 3225 -271 0
1 3225 181 0
1 240 -3075 0
1 -240 3045 0
1 -240 3151 0
1 240 3060 0
1 -240 3030 0
1 240 -255 0
1 255 -3105 0
1 255 3136 0
1 -255 3075 0
1 255 -3045 0
1 -255 3151 0
1 255 3030 0
1 -270 -3136 0
1 -270 -3106 0
1 270 3076 0
1 -285 3106 0
1 -285 270 0
1 -285 3091 0
1 -285 3061 0
1 -285 286 0
1 3121 285 0
1 -3121 255 0
1 -3136 -361 0
1 3136 -330 0
1 3136 -376 0
1 3136 315 0
1 -3151 -226 0
1 3151 -361 0
1 3151 331 0
1 3151 270 0
1 3151 376 0
1 -3151 -346 0
1 -3151 316 0
1 -3166 -301 0
1 3166 -211 0
1 300 -3136 0
1 -300 3106 0
1 -300 3030 0
1 -315 3136 0
1 -315 -3076 0
1 -315 -3045 0
1 -315 300 0
1 315 -3091 0
1 -315 3061 0
1 -330 -345 0
1 330 -3016 0
1 -330 3031 0
1 -345 -3136 0
1 345 3106 0
1 -345 330 0
1 345 -3001 0
1 345 -346 0
1 -3061 -3076 0
1 -3061 -360 0
1 3061 -330 0
1 -3061 405 0
1 3076 -300 0
1 3076 -345 0
1 3076 -315 0
1 3091 -376 0
1 -3106 3107 0
1 3106 -420 0
1 3106 -361 0
1 -3106 -300 0
1 -3106 -3091 0
1 -3106 345 0
1 360 -3076 0
1 360 361 0
1 -375 3046 0
1 375 -3016 0
1 -375 -3031 0
1 375 376 0
1 390 3016 0
1 390 405 0
1 -390 -3001 0
1 405 -3046 0
1 -405 3061 0
1 -405 -3001 0
1 -3001 -480 0
1 3001 -390 0
1 -3001 330 0
1 -3016 360 0
1 -3016 -375 0
1 -3016 3001 0
1 3031 480 0
1 3031 -450 0
1 -3031 390 0
1 -3031 -3046 0
1 3031 -3032 0
1 -3046 -480 0
1 3046 450 0
1 3046 -390 0
1 3046 -330 0
1 -3046 -3031 0
1 -62 3525 0
1 62 -3495 0
1 -62 77 0
1 77 3495 0
1 -77 -76 0
1 -77 3480 0
1 -77 -62 0
1 -92 3495 0
1 92 -3465 0
1 -92 3435 0
1 92 -3510 0
1 -92 3450 0
1 92 3420 0
1 107 3495 0
1 107 -3510 0
1 -107 3450 0
1 -107 92 0
1 3480 167 0
1 3480 3495 0
1 -3480 152 0
1 3480 -62 0
1 -3495 -167 0
1 -3495 62 0
1 -3510 -3525 0
1 3525 3510 0
1 -3525 92 0
1 122 -3495 0
1 -122 -3480 0
1 122 -3420 0
1 -137 3330 0
1 137 -3495 0
1 -137 3465 0
1 -137 -122 0
1 -152 -3360 0
1 152 -167 0
1 -152 3405 0
1 152 3375 0
1 -152 -3480 0
1 -167 -3480 0
1 -167 -166 0
1 167 -152 0
1 3420 -197 0
1 3420 -137 0
1 3420 107 0
1 3420 -3435 0
1 -3420 -3421 0
1 -3435 -182 0
1 -3450 -152 0
1 -3465 -257 0
1 -3465 3450 0
1 -3465 242 0
1 3465 -92 0
1 182 3435 0
1 182 -3375 0
1 -182 -3315 0
1 -182 -181 0
1 197 -3435 0
1 197 3405 0
1 197 3315 0
1 197 3420 0
1 212 -3360 0
1 212 -227 0
1 -212 3301 0
1 -212 -3375 0
1 212 -211 0
1 -212 3285 0
1 -212 3390 0
1 227 -3435 0
1 227 3346 0
1 -227 -3285 0
1 227 3420 0
1 227 -3390 0
1 3360 -3361 0
1 -3360 -286 0
1 3375 -3360 0
1 3375 3376 0
1 -3375 -212 0
1 -3375 286 0
1 3390 257 0
1 -3390 -227 0
1 3390 -287 0
1 3405 197 0
1 -3405 3406 0
1 -3405 -152 0
1 241 3270 0
1 241 -3240 0
1 -241 3375 0
1 241 -242 0
1 241 3316 0
1 -256 3331 0
1 -256 -3375 0
1 256 -3285 0
1 -271 3331 0
1 271 3241 0
1 -271 -286 0
1 286 -3301 0
1 286 -3271 0
1 286 3241 0
1 -286 3346 0
1 -286 -3316 0
1 -286 -287 0
1 -3301 362 0
1 3301 271 0
1 3301 241 0
1 3301 -212 0
1 3316 3317 0
1 -3316 377 0
1 3316 -346 0
1 -3316 286 0
1 -3331 -256 0
1 3331 212 0
1 3331 347 0
1 -3346 302 0
1 3346 -241 0
1 301 -3256 0
1 -301 -316 0
1 -316 -3301 0
1 316 -3256 0
1 316 317 0
1 -331 330 0
1 331 -3316 0
1 -331 3196 0
1 346 -3301 0
1 346 -3196 0
1 3241 3240 0
1 3241 -376 0
1 3256 391 0
1 3256 -271 0
1 -3256 -406 0
1 3256 -376 0
1 3256 346 0
1 -3271 421 0
1 -3271 271 0
1 -3271 436 0
1 -3271 3286 0
1 -3271 -407 0
1 -3271 377 0
1 3271 346 0
1 3271 286 0
1 -3286 421 0
1 3286 301 0
1 3286 -436 0
1 3286 346 0
1 -361 -3151 0
1 -361 -3196 0
1 361 -3166 0
1 376 3106 0
1 376 -361 0
1 376 3241 0
1 -376 3256 0
1 -376 377 0
1 391 3122 0
1 -391 3091 0
1 391 406 0
1 406 3152 0
1 -406 3122 0
1 -406 -3091 0
1 406 -3256 0
1 -406 -3226 0
1 3181 -481 0
1 3181 420 0
1 -3181 -3182 0
1 3196 -420 0
1 -3196 -361 0
1 3196 -406 0
1 -3196 346 0
1 -3211 -481 0
1 3211 -391 0
1 -3211 -3226 0
1 3211 3210 0
1 3211 -436 0
1 3211 406 0
1 3226 -331 0
1 3226 -466 0
1 3226 406 0
1 -3226 -376 0
1 -3226 3225 0
1 420 -3122 0
1 -435 3106 0
1 435 3152 0
1 -435 3091 0
1 -450 -3137 0
1 450 -3077 0
1 -450 465 0
1 450 3196 0
1 -465 -3046 0
1 465 3181 0
1 -465 -3062 0
1 -465 -3031 0
1 -3122 3137 0
1 -3122 -450 0
1 3122 -420 0
1 -3122 525 0
1 3122 465 0
1 3122 -3121 0
1 -3122 -406 0
1 -3137 450 0
1 -3137 420 0
1 -3137 -556 0
1 3137 -525 0
1 3137 -3122 0
1 3137 -406 0
1 3152 420 0
1 3152 556 0
1 3152 496 0
1 -3167 481 0
1 -3167 -450 0
1 -3167 -3152 0
1 3167 -541 0
1 480 3137 0
1 480 3016 0
1 -495 480 0
1 495 -3137 0
1 495 3077 0
1 -495 3122 0
1 495 3031 0
1 495 3001 0
1 510 -3077 0
1 510 3002 0
1 525 -3137 0
1 525 -526 0
1 -525 -3092 0
1 525 -3002 0
1 3062 480 0
1 3077 -450 0
1 -3077 -3076 0
1 3077 -585 0
1 -3077 570 0
1 3077 -540 0
1 3092 -480 0
1 3092 -450 0
1 -3092 586 0
1 -3092 495 0
1 -3092 510 0
1 -3107 -586 0
1 -3107 556 0
1 3107 -495 0
1 -540 3047 0
1 540 -555 0
1 540 -3062 0
1 555 3077 0
1 555 -3017 0
1 555 -3062 0
1 570 -3077 0
1 570 585 0
1 -570 -3032 0
1 585 3002 0
1 -585 3062 0
1 3002 -510 0
1 -3017 3016 0
1 -3017 570 0
1 3047 -555 0
1 -3047 525 0
1 3047 -570 0
1 -3047 -510 0
1 242 -3465 0
1 -242 3405 0
1 -242 3511 0
1 -257 256 0
1 257 -3465 0
1 -257 3435 0
1 257 3420 0
1 272 3526 0
1 -272 3496 0
1 -272 -3466 0
1 272 -3481 0
1 -272 -3390 0
1 -287 3496 0
1 287 -3436 0
1 287 3405 0
1 -287 -3421 0
1 -287 -286 0
1 3481 3482 0
1 3496 257 0
1 -3496 332 0
1 -3496 302 0
1 3496 272 0
1 3496 3481 0
1 -3496 317 0
1 3511 242 0
1 3511 3510 0
1 -3526 -3511 0
1 -302 301 0
1 317 3496 0
1 -317 3466 0
1 -317 3346 0
1 -317 3451 0
1 317 -3421 0
1 -332 3361 0
1 332 3331 0
1 -332 3406 0
1 332 3451 0
1 332 3421 0
1 332 -3391 0
1 -347 -3361 0
1 347 3331 0
1 -347 3496 0
1 347 -3466 0
1 -347 3436 0
1 -347 -3376 0
1 -347 3346 0
1 347 3481 0
1 -347 -3451 0
1 347 3421 0
1 -347 -3391 0
1 -3421 -377 0
1 -3436 422 0
1 -3436 -392 0
1 -3436 302 0
1 3436 -272 0
1 3436 437 0
1 3436 -347 0
1 3436 3421 0
1 -3451 -3466 0
1 3451 -332 0
1 3451 3450 0
1 -3451 272 0
1 -3451 -437 0
1 3466 332 0
1 -3466 -302 0
1 -3466 -3451 0
1 3466 -437 0
1 -362 -3436 0
1 -362 377 0
1 377 -3436 0
1 377 3391 0
1 392 -3361 0
1 -392 -3332 0
1 -392 -3271 0
1 -392 3436 0
1 -392 3376 0
1 392 -3286 0
1 407 3271 0
1 -407 392 0
1 407 -3406 0
1 407 3347 0
1 407 -3317 0
1 3361 332 0
1 3361 377 0
1 -3376 -451 0
1 3376 421 0
1 3376 497 0
1 3376 -377 0
1 -3391 467 0
1 -3391 407 0
1 -3391 -377 0
1 -3391 -3390 0
1 -3406 452 0
1 3406 3405 0
1 3406 437 0
1 -3406 347 0
1 -421 -3361 0
1 -421 422 0
1 -421 -3317 0
1 421 3286 0
1 -436 -3347 0
1 451 452 0
1 -451 -3332 0
1 -451 3242 0
1 -451 3347 0
1 451 3317 0
1 -451 -3287 0
1 466 -3361 0
1 -466 3242 0
1 466 -3257 0
1 -466 -3226 0
1 -3302 -466 0
1 -3302 3317 0
1 3317 466 0
1 -3317 -436 0
1 3317 511 0
1 3332 -527 0
1 3332 436 0
1 3332 407 0
1 -3347 -512 0
1 3347 -482 0
1 3347 -421 0
1 -3347 557 0
1 3347 466 0
1 481 482 0
1 481 3287 0
1 -481 -3226 0
1 -496 3242 0
1 496 -495 0
1 496 3152 0
1 496 3287 0
1 -511 -3272 0
1 -511 -526 0
1 511 3182 0
1 -511 -3152 0
1 -511 3227 0
1 -526 -3212 0
1 -526 3287 0
1 -526 3227 0
1 -3242 451 0
1 -3242 -3257 0
1 -3242 556 0
1 -3242 571 0
1 -3257 -451 0
1 3257 -3242 0
1 -3257 556 0
1 3257 -511 0
1 3272 451 0
1 3272 -587 0
1 3272 496 0
1 3272 -3287 0
1 -3287 -3286 0
1 541 -3212 0
1 -541 3152 0
1 -541 3122 0
1 -541 3092 0
1 -556 -3242 0
1 -556 3212 0
1 -556 3257 0
1 556 -541 0
1 571 -3182 0
1 -571 570 0
1 -571 -3227 0
1 -586 -3182 0
1 3182 586 0
1 3182 -3197 0
1 3197 -526 0
1 3197 511 0
1 -3212 526 0
1 3227 541 0
1 -422 3527 0
1 422 -3497 0
1 422 3466 0
1 -422 3436 0
1 422 -3391 0
1 -437 -3497 0
1 -437 -3482 0
1 437 -3391 0
1 -452 -451 0
1 -452 -3467 0
1 452 3452 0
1 452 3391 0
1 -467 3497 0
1 467 -3437 0
1 -467 3452 0
1 3482 -482 0
1 -3482 452 0
1 -3482 422 0
1 -3482 3497 0
1 -3482 -467 0
1 -3497 -482 0
1 -3497 -3482 0
1 -3512 -452 0
1 3512 -3527 0
1 -3512 437 0
1 -3527 -3526 0
1 3527 -437 0
1 -482 -481 0
1 482 -3406 0
1 482 -3452 0
1 482 -3422 0
1 -497 3406 0
1 -497 3482 0
1 -497 3391 0
1 512 -3407 0
1 527 -3392 0
1 527 3467 0
1 527 3407 0
1 527 -3482 0
1 -527 -3452 0
1 3422 -452 0
1 3422 -3437 0
1 3422 527 0
1 -3437 -452 0
1 3437 -467 0
1 -3452 497 0
1 3452 -3451 0
1 3467 527 0
1 -3467 3452 0
1 -557 3332 0
1 557 -3302 0
1 -557 3347 0
1 572 3362 0
1 -572 3272 0
1 572 -3407 0
1 572 -3422 0
1 587 -3392 0
1 -587 3272 0
1 3362 -527 0
1 3362 -3377 0
1 -3377 527 0
1 3392 -512 0
1 -3392 557 0
1 3407 512 0
1 3407 3392 0
1 -3407 -3406 0
1 -3407 -527 0
